
Gurobi 11.0.3 (mac64[x86]) logging started Wed Apr  9 11:08:03 2025

Set parameter LogFile to value "Results/Conservative_experiment/sanity_check_v17.log"
Set parameter TimeLimit to value 84600
Set parameter Method to value 2
Set parameter Crossover to value 0
Set parameter BarConvTol to value 1e-10
Gurobi Optimizer version 11.0.3 build v11.0.3rc0 (mac64[x86] - Darwin 23.4.0 23E214)

CPU model: Intel(R) Core(TM) i7-1060NG7 CPU @ 1.20GHz
Thread count: 4 physical cores, 8 logical processors, using up to 8 threads

Optimize a model with 3282976 rows, 3705248 columns and 14996144 nonzeros
Model fingerprint: 0x979db4e8
Coefficient statistics:
  Matrix range     [2e-01, 3e+00]
  Objective range  [6e-05, 5e+00]
  Bounds range     [0e+00, 0e+00]
  RHS range        [4e+00, 1e+03]
Presolve removed 1322528 rows and 1370000 columns (presolve time = 5s) ...
Presolve removed 1534112 rows and 1581584 columns (presolve time = 11s) ...
Presolve removed 2138646 rows and 2239726 columns
Presolve time: 13.93s
Presolved: 1144330 rows, 1465522 columns, 5615048 nonzeros
Ordering time: 2.26s

Barrier statistics:
 AA' NZ     : 2.828e+06
 Factor NZ  : 2.297e+07 (roughly 300 MB of memory)
 Factor Ops : 1.686e+10 (less than 1 second per iteration)
 Threads    : 4

                  Objective                Residual
Iter       Primal          Dual         Primal    Dual     Compl     Time
   0   3.09941703e+06  9.70656092e+06  4.90e+04 1.68e+00  7.12e+03    19s
   1   2.31397571e+06  9.24510854e+06  4.64e+04 1.01e+01  6.53e+03    20s
   2  -3.11482437e+06  8.22049045e+06  3.39e+04 3.22e+00  4.32e+03    20s
   3  -3.55321328e+07  7.63044713e+06  5.50e+03 2.63e+00  1.14e+03    21s
   4  -2.38236544e+07  2.89043284e+06  7.30e+02 3.01e-01  2.03e+02    22s
   5  -4.81342986e+06  6.95146903e+05  8.62e+01 3.22e-02  2.95e+01    23s
   6  -1.21559315e+06  2.50683183e+05  2.00e+01 8.52e-03  7.46e+00    23s
   7  -1.31738667e+05  5.30688494e+04  1.64e+00 2.70e-13  7.76e-01    24s
   8  -1.93358201e+04  1.64857637e+04  1.93e-01 7.82e-14  1.33e-01    25s
   9  -5.40558872e+03  2.71676977e+03  5.71e-02 4.81e-14  2.96e-02    26s
  10  -5.17154477e+01  9.75047589e+02  3.96e-03 7.11e-14  3.64e-03    27s
  11   2.67889646e+02  5.74242664e+02  1.01e-03 7.05e-14  1.08e-03    28s
  12   3.49270735e+02  4.32971792e+02  1.42e-04 5.53e-14  2.92e-04    29s
  13   3.61251532e+02  4.06308235e+02  3.24e-05 9.40e-14  1.56e-04    29s
  14   3.66277563e+02  3.78926391e+02  5.37e-06 1.15e-13  4.37e-05    30s
  15   3.66489742e+02  3.76038244e+02  4.43e-06 1.13e-13  3.30e-05    31s
  16   3.67053990e+02  3.71825035e+02  1.96e-06 1.33e-13  1.65e-05    32s
  17   3.67121510e+02  3.71272876e+02  1.69e-06 1.13e-13  1.44e-05    32s
  18   3.67276880e+02  3.71047362e+02  1.16e-06 1.29e-13  1.30e-05    33s
  19   3.67477276e+02  3.70445647e+02  6.66e-07 1.40e-13  1.03e-05    34s
  20   3.67503919e+02  3.70229642e+02  6.35e-07 1.46e-13  9.42e-06    35s
  21   3.67627314e+02  3.70074011e+02  5.34e-07 2.49e-13  8.45e-06    35s
  22   3.67789276e+02  3.69863260e+02  4.39e-07 2.90e-13  7.16e-06    36s
  23   3.67804282e+02  3.69835745e+02  4.32e-07 2.00e-13  7.02e-06    37s
  24   3.67865826e+02  3.69688855e+02  4.02e-07 2.61e-13  6.30e-06    38s
  25   3.67954962e+02  3.69571416e+02  3.60e-07 1.67e-13  5.58e-06    39s
  26   3.68056401e+02  3.69435780e+02  3.14e-07 1.95e-13  4.77e-06    40s
  27   3.68156934e+02  3.69309445e+02  2.71e-07 1.33e-13  3.98e-06    41s
  28   3.68348305e+02  3.69269429e+02  1.93e-07 1.87e-13  3.18e-06    42s
  29   3.68371637e+02  3.69244509e+02  1.85e-07 1.79e-13  3.02e-06    43s
  30   3.68411463e+02  3.69184793e+02  1.70e-07 1.75e-13  2.67e-06    43s
  31   3.68425277e+02  3.69165903e+02  1.65e-07 1.94e-13  2.56e-06    44s
  32   3.68511234e+02  3.69118138e+02  1.39e-07 2.08e-13  2.10e-06    45s
  33   3.68545392e+02  3.69099344e+02  1.28e-07 1.92e-13  1.91e-06    46s
  34   3.68598893e+02  3.69082111e+02  1.08e-07 2.42e-13  1.67e-06    47s
  35   3.68685279e+02  3.69001045e+02  7.24e-08 2.21e-13  1.09e-06    48s
  36   3.68793777e+02  3.68927238e+02  2.87e-08 3.47e-13  4.62e-07    49s
  37   3.68842683e+02  3.68893260e+02  1.06e-08 4.16e-13  1.75e-07    50s
  38   3.68855171e+02  3.68880547e+02  1.10e-08 7.19e-13  8.81e-08    51s
  39   3.68863454e+02  3.68868742e+02  3.79e-09 1.60e-12  1.84e-08    52s
  40   3.68865759e+02  3.68865899e+02  3.66e-10 1.53e-12  4.89e-10    53s
  41   3.68865871e+02  3.68865871e+02  5.27e-11 9.12e-13  1.73e-13    53s
  42   3.68865871e+02  3.68865871e+02  2.24e-11 8.11e-13  1.17e-16    54s

Barrier solved model in 42 iterations and 54.18 seconds (39.09 work units)
Optimal objective 3.68865871e+02

